56 0 
84 70 
45 2 
21 6 
72 86 
36 42 
62 89 
78 53 
46 16 
31 60 
44 95 
98 14 
97 90 
43 56 
79 13 
9 88 
65 94 
10 10 
48 83 
68 20 
70 57 
14 84 
46 93 
37 44 
61 68 
4 57 
63 55 
71 12 
45 66 
69 24 
80 78 
64 97 
24 74 
8 73 
58 28 
45 80 
85 60 
64 83 
5 54 
27 66 
22 32 
75 38 
87 98 
50 84 
65 71 
60 97 
2 25 
94 78 
51 54 
3 61 
